55 45 6
0 1 0
1 2 0
2 3 0
3 4 0
4 5 0
6 7 1
7 8 1
8 9 1
9 10 1
11 12 2
12 13 2
13 14 2
14 15 2
16 17 3
17 18 3
18 19 3
19 20 3
21 22 4
22 23 4
23 24 4
24 25 4
25 26 4
27 28 5
28 29 5
29 30 5
30 31 5
31 32 5
33 34 6
34 35 6
35 36 6
36 37 6
38 39 7
39 40 7
40 41 7
41 42 7
43 44 8
44 45 8
45 46 8
46 47 8
47 48 8
49 50 9
50 51 9
51 52 9
52 53 9
53 54 9
2 0 5 2 4
3 4 3 2 5 1 1
2 2 4 5 2
3 5 5 1 6 0 1
1 2 1
3 5 6 2 6 3 3
1 1 6
1 2 1
1 0 2
2 1 6 3 6
3 5 5 1 6 0 1
1 1 6
2 2 4 5 2
3 5 5 1 6 0 1
3 2 4 1 6 5 6
2 0 1 4 5
3 5 5 1 6 0 1
1 1 6
1 2 1
3 4 3 2 5 1 1
2 2 4 5 2
3 4 3 2 5 1 1
3 5 5 1 6 0 1
1 1 6
2 0 5 2 4
2 1 6 3 6
3 2 4 1 6 5 6
2 2 4 5 2
1 0 2
3 2 4 1 6 5 6
1 1 6
3 5 5 1 6 0 1
2 0 3 3 2
1 5 1
2 0 3 3 2
3 2 4 1 6 5 6
3 1 6 4 1 0 6
1 2 1
2 2 4 5 2
3 2 4 1 6 5 6
3 5 5 1 6 0 1
1 1 6
2 1 6 3 6
1 5 1
2 0 1 4 5
3 5 6 2 6 3 3
1 0 2
3 2 4 1 6 5 6
2 1 6 3 6
2 2 4 5 2
3 2 4 1 6 5 6
3 4 3 2 5 1 1
1 5 1
2 1 6 3 6
2 0 3 3 2